17	4
21	24	17	15	
0	0	0	0	0	3	2	3	4	
10	3	1	0	0	2	5	11	
5	2	2	0	0	3	6	10	12	
9	7	7	0	4	3	9	14	15	
2	3	0	5	10	3	7	8	13	
75	0	6	0	0	3	8	14	17	
100	7	5	3	0	3	9	15	17	
250	0	7	0	0	3	17	17	17	
125	0	8	0	0	3	16	17	17	
125	0	8	2	2	3	11	14	15	
150	10	2	0	7	3	13	16	17	
75	0	0	2	0	3	16	17	17	
3	8	0	0	3	3	17	17	17	
10	9	6	0	0	2	17	17	
10	0	9	10	7	3	17	17	17	
9	0	2	4	0	2	17	17	
0	0	0	0	0	0	
